{"lblp_lower": [622.0680337726697, 740.0879442183979, 760.0911355242303, 784.6500000000003, 786.6040077512225, 787.46950659782], "cuttingPlaneBendInfo": [{"tot_cut_value": 0, "TOT_gen_cut": 0, "tot_time_opt": 0, "max_time_opt": 0}, {"tot_cut_value": 0, "TOT_gen_cut": 0, "tot_time_opt": 0, "max_time_opt": 0}, {"tot_cut_value": 0, "TOT_gen_cut": 0, "tot_time_opt": 0, "max_time_opt": 0}, {"tot_cut_value": 0, "TOT_gen_cut": 0, "tot_time_opt": 0, "max_time_opt": 0}, {"tot_cut_value": 0, "TOT_gen_cut": 0, "tot_time_opt": 0, "max_time_opt": 0}, {"tot_cut_value": 0, "TOT_gen_cut": 0, "tot_time_opt": 0, "max_time_opt": 0}], "time_compress": [0, 0, 0, 0, 0, 0], "ub_lp": [862.7253472222222, 839.2307993155711, 836.0233194817896, 793.0444444444448, 788.0028399311533, 787.46950659782], "prob_sizes_at_start": [{"timeGraph": 65, "ngGraph": 52}, {"timeGraph": 123, "ngGraph": 58}, {"timeGraph": 173, "ngGraph": 67}, {"timeGraph": 208, "ngGraph": 77}, {"timeGraph": 231, "ngGraph": 97}, {"timeGraph": 230, "ngGraph": 102}], "prob_sizes_after_compress": [{"timeGraph": 23, "ngGraph": 39}, {"timeGraph": 55, "ngGraph": 35}, {"timeGraph": 75, "ngGraph": 27}, {"timeGraph": 112, "ngGraph": 19}, {"timeGraph": 108, "ngGraph": 19}, {"timeGraph": 101, "ngGraph": 23}], "prob_sizes_after_split": [{"timeGraph": 123, "ngGraph": 58}, {"timeGraph": 173, "ngGraph": 67}, {"timeGraph": 208, "ngGraph": 77}, {"timeGraph": 231, "ngGraph": 97}, {"timeGraph": 230, "ngGraph": 102}, {"timeGraph": 141, "ngGraph": 61}], "did_compress": [true, true, true, true, true, true], "lp_time_project": [1.2864258289337158, 0.18465375900268555, 0.15354585647583008, 0.2211136817932129, 0.14570403099060059, 0.1115410327911377], "lp_time_LB": [0.09415602684020996, 0.08610200881958008, 0.1534419059753418, 0.15148210525512695, 0.03615307807922363, 0.025142908096313477], "ilp_time": [], "history_of_graphs_by_iter": [], "ROOT_LP_PRIOR_ADDING_CUTS": 787.46950659782, "OUR_ilp_objective": 793.0000000000001, "OUR_MIP_Lower_Bound": 792.9999999999999, "OUR_ilp_time": 0.06989312171936035, "OUR_gurobi_MILP_str": "Gurobi Optimizer version 12.0.1 build v12.0.1rc0 (mac64[arm] - Darwin 24.5.0 24F74)\n\nCPU model: Apple M1\nThread count: 8 physical cores, 8 logical processors, using up to 8 threads\n\nNon-default parameters:\nTimeLimit  3000\n\nWLS license 2690165 - registered to Optym\nOptimize a model with 7217 rows, 3287 columns and 25731 nonzeros\nModel fingerprint: 0x9d29f142\nVariable types: 102 continuous, 3185 integer (2111 binary)\nCoefficient statistics:\n  Matrix range     [1e-01, 2e+02]\n  Objective range  [4e+00, 8e+01]\n  Bounds range     [1e-01, 2e+02]\n  RHS range        [1e+00, 2e+02]\nUsing branch priorities.\nPresolve removed 6577 rows and 2548 columns\nPresolve time: 0.03s\nPresolved: 640 rows, 739 columns, 4155 nonzeros\nVariable types: 88 continuous, 651 integer (613 binary)\nFound heuristic solution: objective 1131.9000000\nFound heuristic solution: objective 1129.0000000\nFound heuristic solution: objective 972.9000000\n\nRoot relaxation: objective 7.875261e+02, 679 iterations, 0.01 seconds (0.01 work units)\n\n    Nodes    |    Current Node    |     Objective Bounds      |     Work\n Expl Unexpl |  Obj  Depth IntInf | Incumbent    BestBd   Gap | It/Node Time\n\n     0     0  787.52607    0   53  972.90000  787.52607  19.1%     -    0s\nH    0     0                     859.5000000  787.52607  8.37%     -    0s\nH    0     0                     840.6000000  787.52607  6.31%     -    0s\nH    0     0                     812.9000000  787.52607  3.12%     -    0s\nH    0     0                     793.6000000  791.71310  0.24%     -    0s\n     0     0  791.71310    0   88  793.60000  791.71310  0.24%     -    0s\n     0     0  792.64796    0    5  793.60000  792.64796  0.12%     -    0s\nH    0     0                     793.0000000  792.64796  0.04%     -    0s\n     0     0  792.64796    0    5  793.00000  792.64796  0.04%     -    0s\n\nCutting planes:\n  Gomory: 2\n  Cover: 1\n  Implied bound: 5\n  Clique: 1\n  MIR: 5\n  Zero half: 3\n  Relax-and-lift: 1\n\nExplored 1 nodes (877 simplex iterations) in 0.07 seconds (0.07 work units)\nThread count was 8 (of 8 available processors)\n\nSolution count 8: 793 793.6 812.9 ... 1131.9\n\nOptimal solution found (tolerance 1.00e-04)\nBest objective 7.930000000000e+02, best bound 7.930000000000e+02, gap 0.0000%\n", "jy_opt": {"ParetoEps": 1e-05, "turn_off_time_windows": false, "deactivate_time_graph": false, "deactivate_demand_graph": false, "epsilon": 0.0001, "weight_slack_projector": 1e-05, "weight_compress": 0.01, "num_cust_use": 50, "dem_step_sz": 1, "time_step_sz": 1, "use_compression": 1, "max_iterations_loop_compress_project": 50, "do_round_dist_times": 1, "my_shift_bet_time_win": 0.0001, "num_terms_per_bin_init_construct": 100, "allOneBig_init": 0, "min_inc_2_compress": 1e-05, "save_graph_each_iter": 0, "use_Xpress": 0, "use_ineq": false, "xpress_file_loc": "/Users/julian/Documents/FICO_Xpress_Config/xpauth.xpr", "run_baseline": 0, "verbose": 0, "use_NG_graph": 1, "num_NG": 9, "in_demo_mode": 0, "threshold_split": 0.1, "offset_cost_edge_project": 0, "use_classic_compress": 1, "use_classic_compress_last": 1, "num_thresh_split_projector": 1000, "lplb_solver": 4, "compresss_solver": 0, "proj_solver": 4, "use_julians_custom_lp_solver": 0, "do_ilp": 1, "roundingDiscretization_num_digits_keep": 3, "doExrtraRemovalEdgesLB": 0, "use_gurobi": 1, "max_ILP_time": 3000, "use_fancy_ng_graph": 1, "use_dem_graph": 0, "use_time_graph": 1, "num_multiplys_demand": 0, "DEBUG_ALLOW_DUMB_EDGES": 0, "add_all_ng_split_at_end": 0, "do_split_based_init": 0, "think_compress": [0], "use_delta_in_milp": 1, "use_delta_in_lp": 1, "turn_off_non_active_fg_project": 0, "use_new_valid_ineq": 0, "digit_mult_use": 10, "use_branch_on_g": true, "LAB_MP_ON": 0, "LAB_MP_neigh_use_power": 9, "LAB_MP_num_ineq_use": 10, "do_remove_actions_from_incumbant": true, "ub_use_remove": 793.0, "use_packing_in_construction": 1, "maxVarsAdd_in_ITER": 10, "use_ng_size_init": 0, "do_presolve": 0, "use_diving_ineq": 1, "BEND_MIN_LP_OBJECTIVE_CUT": 0.1, "BEND_USE_RAND": 0, "BEND_MAX_SIZE_CHOOSE_K": 230, "BEND_VAL_STOP_ADDING_CUTS": 100000000, "BEND_MY_SIZES_USE": [9], "NUMERICAL_BEND_OFFSET_COST_CUT": 0.0001, "NUMERICAL_BEND_EPSILON_MULT_PARETO_OBJ": 0.001, "NO_PARETO_NUMERICAL_BEND_OFFSET_COST_CUT": 0, "NO_PARETO_BEND_VAL_STOP_ADDING_CUTS": 1, "NO_PARETO_EPSILON_MAX_VAL_CON": 0.01, "BENDERS_NEIGH_SZ_USE": 9, "Actions_of_given_sol": [], "all_vars_binary": 1, "restore_after_each_step": 1, "use_ng": 1, "compress_solver": 1, "DEBUG_NG_turn_off_CLEAN": false, "max_nodes_split": Infinity}, "output_ilp_solution": {"delta_capRem_0": 8.2, "delta_timeRem_0": 160.0, "delta_capRem_1": 2.7, "delta_timeRem_1": 192.1, "delta_capRem_2": 1.3, "delta_timeRem_2": 33.0, "delta_capRem_3": 4.2, "delta_timeRem_3": 74.3, "delta_capRem_4": 2.6, "delta_timeRem_4": 44.8, "delta_capRem_5": 0.3, "delta_timeRem_5": 111.0, "delta_capRem_6": 20.0, "delta_timeRem_6": 208.8, "delta_capRem_7": 8.7, "delta_timeRem_7": 145.0, "delta_capRem_8": 5.1, "delta_timeRem_8": 114.0, "delta_capRem_9": 16.6, "delta_timeRem_9": 116.0, "delta_capRem_10": 17.8, "delta_timeRem_10": 143.0, "delta_capRem_11": 1.9, "delta_timeRem_11": 62.0, "delta_capRem_12": 2.3, "delta_timeRem_12": 51.0, "delta_capRem_13": 11.1, "delta_timeRem_13": 184.8, "delta_capRem_14": 2.0, "delta_timeRem_14": 169.1, "delta_capRem_15": 7.3, "delta_timeRem_15": 153.2, "delta_capRem_16": 2.8, "delta_timeRem_16": 64.8, "delta_capRem_17": 4.8, "delta_timeRem_17": 124.6, "delta_capRem_18": 19.5, "delta_timeRem_18": 160.0, "delta_capRem_19": 7.0, "delta_timeRem_19": 90.2, "delta_capRem_20": 13.6, "delta_timeRem_20": 195.9, "delta_capRem_21": 6.0, "delta_timeRem_21": 113.0, "delta_capRem_22": 9.4, "delta_timeRem_22": 150.3, "delta_capRem_23": 2.2, "delta_timeRem_23": 87.0, "delta_capRem_24": 2.3, "delta_timeRem_24": 54.3, "delta_capRem_25": 1.7, "delta_timeRem_25": 22.0, "delta_capRem_26": 11.4, "delta_timeRem_26": 198.7, "delta_capRem_27": 9.8, "delta_timeRem_27": 182.0, "delta_capRem_28": 3.1, "delta_timeRem_28": 147.0, "delta_capRem_29": 7.2, "delta_timeRem_29": 139.0, "delta_capRem_30": 2.7, "delta_timeRem_30": 41.6, "delta_capRem_31": 6.1, "delta_timeRem_31": 69.5, "delta_capRem_32": 4.2, "delta_timeRem_32": 173.0, "delta_capRem_33": 2.7, "delta_timeRem_33": 67.4, "delta_capRem_34": 3.5, "delta_timeRem_34": 94.6, "delta_capRem_35": 6.4, "delta_timeRem_35": 159.0, "delta_capRem_36": 3.1, "delta_timeRem_36": 72.1, "delta_capRem_37": 5.4, "delta_timeRem_37": 127.4, "delta_capRem_38": 12.5, "delta_timeRem_38": 168.9, "delta_capRem_39": 1.2, "delta_timeRem_39": 136.8, "delta_capRem_40": 6.5, "delta_timeRem_40": 127.2, "delta_capRem_41": 11.6, "delta_timeRem_41": 204.0, "delta_capRem_42": 3.8, "delta_timeRem_42": 99.3, "delta_capRem_43": 9.1, "delta_timeRem_43": 169.2, "delta_capRem_44": 20.0, "delta_timeRem_44": 200.9, "delta_capRem_45": 2.9, "delta_timeRem_45": 93.0, "delta_capRem_46": 16.4, "delta_timeRem_46": 176.2, "delta_capRem_47": 20.0, "delta_timeRem_47": 202.2, "delta_capRem_48": 5.9, "delta_timeRem_48": 132.0, "delta_capRem_49": 5.5, "delta_timeRem_49": 190.8, "act_0_29": 1, "act_1_14": 1, "act_2_51": 1, "act_3_24": 1, "act_4_51": 1, "act_5_51": 1, "act_6_18": 1, "act_7_17": 1, "act_8_34": 1, "act_9_19": 1, "act_10_9": 1, "act_11_51": 1, "act_12_51": 1, "act_13_43": 1, "act_14_39": 1, "act_15_37": 1, "act_16_4": 1, "act_17_51": 1, "act_18_10": 1, "act_19_31": 1, "act_20_38": 1, "act_21_3": 1, "act_22_40": 1, "act_23_11": 1, "act_24_25": 1, "act_25_51": 1, "act_26_27": 1, "act_27_0": 1, "act_28_23": 1, "act_29_8": 1, "act_30_51": 1, "act_31_30": 1, "act_32_28": 1, "act_33_2": 1, "act_34_33": 1, "act_35_48": 1, "act_36_12": 1, "act_37_42": 1, "act_38_22": 1, "act_39_5": 1, "act_40_21": 1, "act_41_13": 1, "act_42_36": 1, "act_43_15": 1, "act_44_7": 1, "act_45_16": 1, "act_46_35": 1, "act_47_46": 1, "act_48_45": 1, "act_49_32": 1, "act_50_1": 1, "act_50_6": 1, "act_50_20": 1, "act_50_26": 1, "act_50_41": 1, "act_50_44": 1, "act_50_47": 1, "act_50_49": 1}, "Actions_of_given_sol": "none just used source and sink terms", "actions_used": ["act_0_29", "act_1_14", "act_2_51", "act_3_24", "act_4_51", "act_5_51", "act_6_18", "act_7_17", "act_8_34", "act_9_19", "act_10_9", "act_11_51", "act_12_51", "act_13_43", "act_14_39", "act_15_37", "act_16_4", "act_17_51", "act_18_10", "act_19_31", "act_20_38", "act_21_3", "act_22_40", "act_23_11", "act_24_25", "act_25_51", "act_26_27", "act_27_0", "act_28_23", "act_29_8", "act_30_51", "act_31_30", "act_32_28", "act_33_2", "act_34_33", "act_35_48", "act_36_12", "act_37_42", "act_38_22", "act_39_5", "act_40_21", "act_41_13", "act_42_36", "act_43_15", "act_44_7", "act_45_16", "act_46_35", "act_47_46", "act_48_45", "act_49_32", "act_50_1", "act_50_6", "act_50_20", "act_50_26", "act_50_41", "act_50_44", "act_50_47", "act_50_49"], "init_default_solution_is_empty": false, "objective_of_initial_sol": 2620.8000000000006, "my_paths": "[[50, 1, 14, 39, 5, 51], [50, 6, 18, 10, 9, 19, 31, 30, 51], [50, 20, 38, 22, 40, 21, 3, 24, 25, 51], [50, 26, 27, 0, 29, 8, 34, 33, 2, 51], [50, 41, 13, 43, 15, 37, 42, 36, 12, 51], [50, 44, 7, 17, 51], [50, 47, 46, 35, 48, 45, 16, 4, 51], [50, 49, 32, 28, 23, 11, 51]]"}